25 50
1 2 5
1 6 1
2 3 3
2 7 4
3 4 4
3 8 4
4 5 1
4 9 4
5 10 5
6 7 5
6 11 5
7 8 2
7 12 3
8 9 1
8 13 3
9 10 2
9 14 1
10 15 4
11 12 4
11 16 2
12 13 4
12 17 4
13 14 5
13 18 5
14 15 5
14 19 5
15 20 1
16 17 4
16 21 2
17 18 3
17 22 5
18 19 1
18 23 3
19 20 5
19 24 4
20 25 1
21 22 3
22 23 3
23 24 1
24 25 2
1 21 4
2 22 5
3 23 1
4 24 5
5 25 5
1 5 5
6 10 5
11 15 3
16 20 2
21 25 5
